750
400 400
1 320 649
2 319 829
3 319 343
4 318 387
5 318 400
6 317 455
7 317 699
8 317 437
9 316 18
10 316 684
11 315 703
12 315 620
13 315 617
14 314 465
15 314 992
16 314 30
17 314 631
18 313 947
19 313 355
20 313 943
21 313 76
22 313 42
23 312 532
24 312 725
25 312 938
26 312 449
27 311 742
28 311 107
29 310 543
30 310 534
31 309 818
32 309 225
33 309 100
34 309 828
35 309 99
36 309 868
37 308 590
38 308 103
39 308 886
40 307 257
41 307 20
42 307 489
43 307 563
44 307 192
45 307 354
46 306 131
47 305 947
48 305 82
49 305 229
50 303 993
51 303 875
52 303 544
53 303 336
54 302 42
55 302 30
56 302 366
57 302 515
58 302 884
59 302 31
60 302 923
61 301 524
62 301 787
63 301 710
64 301 359
65 301 51
66 301 823
67 300 879
68 300 820
69 300 364
70 300 686
71 299 559
72 299 249
73 299 407
74 298 53
75 298 789
76 298 24
77 297 73
78 297 462
79 296 180
80 296 483
81 296 699
82 295 420
83 295 327
84 295 830
85 294 639
86 294 893
87 294 3
88 294 717
89 294 444
90 294 704
91 294 155
92 293 374
93 293 323
94 292 323
95 292 423
96 291 427
97 291 630
98 291 200
99 291 666
100 291 690
101 290 602
102 290 56
103 290 779
104 290 871
105 290 784
106 290 103
107 290 854
108 289 712
109 289 294
110 288 792
111 288 640
112 288 328
113 288 310
114 288 492
115 287 57
116 287 154
117 287 204
118 286 18
119 286 922
120 286 69
121 286 253
122 286 427
123 286 76
124 286 945
125 286 592
126 286 518
127 286 299
128 286 354
129 286 636
130 286 888
131 285 248
132 285 513
133 285 560
134 285 452
135 285 400
136 284 938
137 284 574
138 284 650
139 284 283
140 283 746
141 283 194
142 282 585
143 282 754
144 282 114
145 281 703
146 281 271
147 281 33
148 281 157
149 280 696
150 280 640
151 279 105
152 279 28
153 279 769
154 278 235
155 278 294
156 278 324
157 278 964
158 278 460
159 277 918
160 277 146
161 277 169
162 277 526
163 276 550
164 276 695
165 276 107
166 276 13
167 276 608
168 276 790
169 276 322
170 275 490
171 275 812
172 275 391
173 275 171
174 274 845
175 274 35
176 273 84
177 272 526
178 271 942
179 271 967
180 271 408
181 270 698
182 270 820
183 270 549
184 270 280
185 270 166
186 269 311
187 268 956
188 268 11
189 267 356
190 267 752
191 266 813
192 266 394
193 266 232
194 265 431
195 265 968
196 265 204
197 264 386
198 263 759
199 263 667
200 263 67
201 263 11
202 262 399
203 260 10
204 260 997
205 260 659
206 260 276
207 260 454
208 259 642
209 259 551
210 258 702
211 258 796
212 258 295
213 257 562
214 257 418
215 257 580
216 257 490
217 257 859
218 256 845
219 256 105
220 255 485
221 255 241
222 255 431
223 254 771
224 253 152
225 253 202
226 253 218
227 252 519
228 251 476
229 251 661
230 251 938
231 251 302
232 251 941
233 251 887
234 250 886
235 250 582
236 250 749
237 249 133
238 248 320
239 248 988
240 248 504
241 248 892
242 248 76
243 247 563
244 247 140
245 246 460
246 246 94
247 246 220
248 246 739
249 245 861
250 245 632
251 245 866
252 245 13
253 244 683
254 244 868
255 244 441
256 244 938
257 243 113
258 243 921
259 243 983
260 242 27
261 241 300
262 240 803
263 240 884
264 239 253
265 239 552
266 238 323
267 238 218
268 238 9
269 237 768
270 236 698
271 236 592
272 236 727
273 235 256
274 235 223
275 235 291
276 235 434
277 235 514
278 235 209
279 234 263
280 234 833
281 234 254
282 234 492
283 234 435
284 233 831
285 233 147
286 233 934
287 232 475
288 232 734
289 231 760
290 230 35
291 230 308
292 230 198
293 229 163
294 229 480
295 229 27
296 228 505
297 228 959
298 228 605
299 227 345
300 227 196
301 227 920
302 227 988
303 227 804
304 227 157
305 226 506
306 226 559
307 226 556
308 226 958
309 225 326
310 225 816
311 225 549
312 225 493
313 225 801
314 225 399
315 224 497
316 224 563
317 224 266
318 224 277
319 223 356
320 223 257
321 222 598
322 222 59
323 222 521
324 221 193
325 221 673
326 221 422
327 221 190
328 221 834
329 221 404
330 220 640
331 220 805
332 219 583
333 218 320
334 218 569
335 218 660
336 218 569
337 218 951
338 218 565
339 217 277
340 217 84
341 217 786
342 216 910
343 216 722
344 215 167
345 215 416
346 215 433
347 215 904
348 215 919
349 215 796
350 214 108
351 214 163
352 214 432
353 214 399
354 214 149
355 214 493
356 213 512
357 212 5
358 212 72
359 212 914
360 212 703
361 212 96
362 211 566
363 211 216
364 211 824
365 211 982
366 211 730
367 211 382
368 210 474
369 209 687
370 209 254
371 208 593
372 208 546
373 207 219
374 205 560
375 205 45
376 205 203
377 204 654
378 204 391
379 204 998
380 203 735
381 202 33
382 202 649
383 201 520
384 201 230
385 201 985
386 201 990
387 201 503
388 201 686
389 200 452
390 200 348
391 200 299
392 199 762
393 199 473
394 199 35
395 199 292
396 199 414
397 198 487
398 198 427
399 198 276
400 198 400
401 198 394
402 198 872
403 197 18
404 197 417
405 197 52
406 197 895
407 197 328
408 196 144
409 196 108
410 196 74
411 196 263
412 195 654
413 195 185
414 194 287
415 194 256
416 193 877
417 193 414
418 193 476
419 193 486
420 192 393
421 192 478
422 192 738
423 192 107
424 192 731
425 192 857
426 191 581
427 191 487
428 191 152
429 190 664
430 190 152
431 190 710
432 190 454
433 189 517
434 189 697
435 188 456
436 187 935
437 187 699
438 187 858
439 185 178
440 184 177
441 184 386
442 183 514
443 183 139
444 182 872
445 182 92
446 182 764
447 181 693
448 181 752
449 180 258
450 180 761
451 180 562
452 179 639
453 179 896
454 179 885
455 179 85
456 179 246
457 178 179
458 177 218
459 176 242
460 175 687
461 174 627
462 174 178
463 173 669
464 173 690
465 173 278
466 172 426
467 172 640
468 172 302
469 171 483
470 171 384
471 171 144
472 170 736
473 170 473
474 170 799
475 169 808
476 169 583
477 168 326
478 168 523
479 168 591
480 168 16
481 168 173
482 167 452
483 167 535
484 167 251
485 167 923
486 165 847
487 165 323
488 164 409
489 164 102
490 163 621
491 163 999
492 162 156
493 162 510
494 161 332
495 161 588
496 161 707
497 161 686
498 160 444
499 160 991
500 160 74
501 160 262
502 160 58
503 159 649
504 159 848
505 158 25
506 158 764
507 157 252
508 157 842
509 155 423
510 155 380
511 155 571
512 154 351
513 154 370
514 154 595
515 154 777
516 153 593
517 152 967
518 151 499
519 150 702
520 150 444
521 150 471
522 150 272
523 149 545
524 149 77
525 148 356
526 148 929
527 148 87
528 147 56
529 147 768
530 147 805
531 146 354
532 145 557
533 145 284
534 144 766
535 144 692
536 143 816
537 143 980
538 143 852
539 142 591
540 142 652
541 142 607
542 142 193
543 142 302
544 142 188
545 141 672
546 141 631
547 141 815
548 141 58
549 141 956
550 141 959
551 141 469
552 141 974
553 141 754
554 140 217
555 140 552
556 140 842
557 139 386
558 139 116
559 139 355
560 138 447
561 138 707
562 138 170
563 137 699
564 137 625
565 136 797
566 136 156
567 136 643
568 135 521
569 135 281
570 135 682
571 134 150
572 133 813
573 133 636
574 133 165
575 132 379
576 132 793
577 132 380
578 132 202
579 132 721
580 132 572
581 131 408
582 131 650
583 131 274
584 131 164
585 130 189
586 130 937
587 130 327
588 130 857
589 129 258
590 129 469
591 129 254
592 129 788
593 128 590
594 128 627
595 128 333
596 128 184
597 127 194
598 127 783
599 127 131
600 127 547
601 127 288
602 127 586
603 126 821
604 126 449
605 125 823
606 125 850
607 124 634
608 122 205
609 122 124
610 122 984
611 122 166
612 122 205
613 121 135
614 121 413
615 121 430
616 121 794
617 121 32
618 121 57
619 121 331
620 121 77
621 120 277
622 120 114
623 120 953
624 120 822
625 119 485
626 119 46
627 119 511
628 119 607
629 119 100
630 119 985
631 118 700
632 118 980
633 118 91
634 118 226
635 118 231
636 118 610
637 117 325
638 117 425
639 117 248
640 117 611
641 116 610
642 115 13
643 115 499
644 115 374
645 115 27
646 114 812
647 114 781
648 114 904
649 114 584
650 113 968
651 113 449
652 113 588
653 112 884
654 111 90
655 111 950
656 110 956
657 110 453
658 110 710
659 110 601
660 109 232
661 109 109
662 108 640
663 108 13
664 108 836
665 108 354
666 108 815
667 107 377
668 107 280
669 107 458
670 107 373
671 107 904
672 106 973
673 106 469
674 106 358
675 106 740
676 105 146
677 105 192
678 105 928
679 105 601
680 105 105
681 105 264
682 105 266
683 105 278
684 104 752
685 104 881
686 103 18
687 103 295
688 103 984
689 102 954
690 102 510
691 101 708
692 101 94
693 101 361
694 99 777
695 99 329
696 98 855
697 97 150
698 97 397
699 96 359
700 96 434
701 96 538
702 95 764
703 94 780
704 93 892
705 93 38
706 92 248
707 92 768
708 92 51
709 92 937
710 91 230
711 91 588
712 91 630
713 90 333
714 90 148
715 90 468
716 90 79
717 89 826
718 89 493
719 89 209
720 88 716
721 88 742
722 87 487
723 87 636
724 87 167
725 87 106
726 86 75
727 86 577
728 86 359
729 86 989
730 85 571
731 84 870
732 83 975
733 83 913
734 83 778
735 83 437
736 83 691
737 82 520
738 82 220
739 82 342
740 82 590
741 81 198
742 81 730
743 81 14
744 81 260
745 81 892
746 81 707
747 80 843
748 80 442
749 80 403
750 80 123
